s td 28 4 30
b 1 4 15
b 2 5 21
b 3 8 28
b 4 2 11
b 5 13 28
b 6 16 19
b 7 21 25
b 8 12 28
b 9 24 30
b 10 12 24
b 11 12 22
b 12 3 10 27
b 13 9 14 20
b 14 10 15 21
b 15 19 21 22
b 16 7 10 27
b 17 2 7 9 10
b 18 7 9 10 21
b 19 19 23 29
b 20 19 21 23 26
b 21 9 10 20 21
b 22 1 10 20 21
b 23 1 20 21 26
b 24 20 21 23 26
b 25 21 23 26
b 26 6
b 27 17
b 28 18
1 14
1 26
1 27
1 28
2 25
3 8
4 17
5 8
6 20
7 25
8 11
9 10
10 11
11 15
12 16
13 21
14 22
15 20
16 18
17 18
18 21
19 20
20 25
21 22
22 23
23 24
24 25
